NAME : ct_7_n_4_k10_t_80
COMMENT : (ct_7_n_4_k10_t_80, Min no of trucks: 4, Optimal value: 924.033949726611, Split: Yes)
TYPE : SDVRP
DIMENSION : 8
EDGE_WEIGHT_TYPE : EUC_2D
CAPACITY : 10
NODE_COORD_SECTION
1 100 100
2 89 5
3 10 48
4 74 167
5 170 91
6 130 128
7 104 173
8 46 13
DEMAND_SECTION
1 0
2 4.5
3 5.6
4 3.4
5 3.0
6 4.1
7 6.1
8 5.2
DEPOT_SECTION
 1
EOF